Route #1: 1 52 24 21 43 67 69 58 72 
Route #2: 2 63 5 49 27 
Route #3: 7 76 73 31 45 46 34 51 
Route #4: 8 71 22 15 12 56 38 17 
Route #5: 9 19 13 33 55 35 59 4 36 14 41 
Route #6: 28 74 48 39 61 50 
Route #7: 40 64 11 26 44 23 77 
Route #8: 42 16 18 25 10 68 53 
Route #9: 47 32 3 20 54 62 6 60 66 
Route #10: 65 30 37 70 29 57 75 
Cost 1221
